MLT05
Position Depot: Random
Horizon for Depot: Large
Position of customers: Mixt
Distribution of the demand: Large
Width of time windows: Tight
Distribution of the service: Large

VEHICLE 
NUMBER 	 CAPACITY 
 5 	 	 855 
 
CUSTOMER
CUST NO. 	 XCOORD.  	 YCOORD. 	 DEMAND 	 READY TIME 	 DUE DATE 	 SERVICE TIME 
 0 	 	 932 	 	 689 	 	 0 	 	 0 	 	 3353 	 	 0 
  1 	 	 984 	 	 714 	 	 40 	 	 3290 	 	 3353 	 	 110 
  2 	 	 181 	 	 758 	 	 55 	 	 684 	 	 829 	 	 185 
  3 	 	 685 	 	 752 	 	 4 	 	 2928 	 	 3076 	 	 173 
  4 	 	 923 	 	 678 	 	 16 	 	 2306 	 	 2416 	 	 115 
  5 	 	 729 	 	 755 	 	 94 	 	 2993 	 	 3076 	 	 101 
  6 	 	 707 	 	 719 	 	 24 	 	 1770 	 	 1936 	 	 150 
  7 	 	 141 	 	 770 	 	 52 	 	 2343 	 	 2452 	 	 196 
  8 	 	 953 	 	 680 	 	 13 	 	 2419 	 	 2599 	 	 107 
  9 	 	 134 	 	 797 	 	 75 	 	 1186 	 	 1292 	 	 171 
  10 	 	 67 	 	 809 	 	 60 	 	 2659 	 	 2787 	 	 139 
  11 	 	 144 	 	 706 	 	 39 	 	 2173 	 	 2326 	 	 162 
  12 	 	 843 	 	 773 	 	 46 	 	 1073 	 	 1200 	 	 160 
  13 	 	 716 	 	 677 	 	 84 	 	 2545 	 	 2678 	 	 157 
  14 	 	 696 	 	 749 	 	 45 	 	 3031 	 	 3089 	 	 198 
  15 	 	 846 	 	 588 	 	 13 	 	 2481 	 	 2564 	 	 159 
  16 	 	 852 	 	 699 	 	 45 	 	 704 	 	 776 	 	 175 
  17 	 	 180 	 	 598 	 	 1 	 	 2030 	 	 2088 	 	 136 
  18 	 	 911 	 	 695 	 	 88 	 	 820 	 	 991 	 	 196 
  19 	 	 704 	 	 684 	 	 93 	 	 1009 	 	 1187 	 	 120 
  20 	 	 226 	 	 697 	 	 7 	 	 1750 	 	 1834 	 	 196 
  21 	 	 848 	 	 594 	 	 90 	 	 548 	 	 706 	 	 128 
  22 	 	 887 	 	 714 	 	 85 	 	 2285 	 	 2361 	 	 149 
  23 	 	 151 	 	 814 	 	 62 	 	 732 	 	 870 	 	 101 
  24 	 	 971 	 	 733 	 	 86 	 	 2347 	 	 2402 	 	 122 
  25 	 	 755 	 	 821 	 	 5 	 	 1152 	 	 1257 	 	 118 
  26 	 	 170 	 	 728 	 	 71 	 	 664 	 	 839 	 	 111 
  27 	 	 943 	 	 767 	 	 44 	 	 484 	 	 554 	 	 154 
  28 	 	 844 	 	 578 	 	 39 	 	 2644 	 	 2725 	 	 178 
  29 	 	 900 	 	 860 	 	 73 	 	 2539 	 	 2738 	 	 176 
  30 	 	 701 	 	 687 	 	 7 	 	 2360 	 	 2439 	 	 123 
  31 	 	 983 	 	 752 	 	 99 	 	 122 	 	 322 	 	 123 
  32 	 	 954 	 	 681 	 	 93 	 	 2502 	 	 2644 	 	 144 
  33 	 	 916 	 	 623 	 	 1 	 	 2861 	 	 2944 	 	 192 
  34 	 	 955 	 	 727 	 	 74 	 	 2954 	 	 3042 	 	 179 
  35 	 	 933 	 	 687 	 	 72 	 	 1403 	 	 1533 	 	 126 
  36 	 	 624 	 	 866 	 	 55 	 	 1637 	 	 1716 	 	 105 
  37 	 	 668 	 	 783 	 	 17 	 	 1817 	 	 1877 	 	 164 
  38 	 	 933 	 	 727 	 	 97 	 	 -36 	 	 49 	 	 142 
  39 	 	 928 	 	 690 	 	 26 	 	 64 	 	 126 	 	 113 
  40 	 	 761 	 	 556 	 	 9 	 	 2967 	 	 3044 	 	 199 
  41 	 	 880 	 	 739 	 	 10 	 	 360 	 	 473 	 	 146 
  42 	 	 642 	 	 732 	 	 93 	 	 1440 	 	 1545 	 	 143 
  43 	 	 758 	 	 692 	 	 49 	 	 759 	 	 900 	 	 184 
  44 	 	 712 	 	 697 	 	 13 	 	 1943 	 	 2074 	 	 199 
  45 	 	 973 	 	 706 	 	 96 	 	 2411 	 	 2557 	 	 166 
  46 	 	 897 	 	 558 	 	 92 	 	 2526 	 	 2673 	 	 154 
  47 	 	 649 	 	 652 	 	 4 	 	 617 	 	 777 	 	 172 
  48 	 	 611 	 	 632 	 	 6 	 	 2329 	 	 2429 	 	 128 
  49 	 	 238 	 	 879 	 	 50 	 	 700 	 	 791 	 	 195 
  50 	 	 844 	 	 750 	 	 51 	 	 861 	 	 1043 	 	 113 
  51 	 	 412 	 	 484 	 	 88 	 	 1914 	 	 1992 	 	 147 
  52 	 	 964 	 	 889 	 	 47 	 	 256 	 	 353 	 	 148 
  53 	 	 375 	 	 509 	 	 49 	 	 2599 	 	 2778 	 	 130 
  54 	 	 136 	 	 102 	 	 9 	 	 1997 	 	 2162 	 	 176 
  55 	 	 289 	 	 580 	 	 1 	 	 1488 	 	 1633 	 	 181 
  56 	 	 532 	 	 562 	 	 24 	 	 1386 	 	 1509 	 	 118 
  57 	 	 749 	 	 303 	 	 70 	 	 2274 	 	 2452 	 	 140 
  58 	 	 642 	 	 204 	 	 73 	 	 679 	 	 872 	 	 167 
  59 	 	 481 	 	 626 	 	 51 	 	 1309 	 	 1484 	 	 191 
  60 	 	 335 	 	 33 	 	 29 	 	 3049 	 	 3203 	 	 121 
  61 	 	 420 	 	 133 	 	 36 	 	 666 	 	 831 	 	 196 
  62 	 	 928 	 	 142 	 	 13 	 	 2788 	 	 2851 	 	 135 
  63 	 	 835 	 	 748 	 	 40 	 	 2179 	 	 2322 	 	 175 
  64 	 	 938 	 	 381 	 	 62 	 	 274 	 	 338 	 	 128 
  65 	 	 92 	 	 0 	 	 79 	 	 1898 	 	 2035 	 	 126 
  66 	 	 165 	 	 37 	 	 19 	 	 2282 	 	 2366 	 	 113 
  67 	 	 200 	 	 925 	 	 34 	 	 1601 	 	 1744 	 	 182 
  68 	 	 49 	 	 347 	 	 29 	 	 2941 	 	 3107 	 	 122 
  69 	 	 1000 	 	 160 	 	 24 	 	 1042 	 	 1203 	 	 158 
  70 	 	 647 	 	 549 	 	 35 	 	 211 	 	 349 	 	 158 
  71 	 	 84 	 	 303 	 	 64 	 	 844 	 	 1024 	 	 161 
  72 	 	 74 	 	 524 	 	 62 	 	 1487 	 	 1578 	 	 118 
  73 	 	 920 	 	 682 	 	 13 	 	 1514 	 	 1591 	 	 107 
  74 	 	 498 	 	 227 	 	 36 	 	 593 	 	 697 	 	 139 
  75 	 	 42 	 	 437 	 	 1 	 	 2847 	 	 2969 	 	 191 
  76 	 	 305 	 	 440 	 	 93 	 	 610 	 	 742 	 	 177 
  77 	 	 439 	 	 750 	 	 69 	 	 480 	 	 546 	 	 136 
  78 	 	 509 	 	 274 	 	 41 	 	 1058 	 	 1172 	 	 171 
  79 	 	 511 	 	 696 	 	 54 	 	 1871 	 	 1997 	 	 164 
  80 	 	 987 	 	 483 	 	 86 	 	 1127 	 	 1279 	 	 190 
  81 	 	 414 	 	 34 	 	 11 	 	 819 	 	 918 	 	 151 
  82 	 	 297 	 	 931 	 	 25 	 	 610 	 	 770 	 	 146 
  83 	 	 336 	 	 708 	 	 59 	 	 2076 	 	 2242 	 	 170 
  84 	 	 440 	 	 278 	 	 69 	 	 1163 	 	 1318 	 	 186 
  85 	 	 217 	 	 185 	 	 52 	 	 910 	 	 962 	 	 143 
  86 	 	 934 	 	 361 	 	 38 	 	 1758 	 	 1925 	 	 176 
  87 	 	 705 	 	 536 	 	 90 	 	 480 	 	 649 	 	 132 
  88 	 	 672 	 	 225 	 	 29 	 	 2091 	 	 2235 	 	 114 
  89 	 	 432 	 	 43 	 	 15 	 	 2600 	 	 2747 	 	 199 
  90 	 	 233 	 	 580 	 	 48 	 	 3223 	 	 3353 	 	 112 
  91 	 	 627 	 	 114 	 	 33 	 	 1976 	 	 2031 	 	 126 
  92 	 	 472 	 	 10 	 	 36 	 	 2354 	 	 2523 	 	 154 
  93 	 	 187 	 	 371 	 	 6 	 	 1828 	 	 2009 	 	 185 
  94 	 	 281 	 	 955 	 	 34 	 	 1799 	 	 1954 	 	 173 
  95 	 	 833 	 	 23 	 	 23 	 	 617 	 	 740 	 	 192 
  96 	 	 297 	 	 563 	 	 50 	 	 1833 	 	 1987 	 	 174 
  97 	 	 207 	 	 368 	 	 16 	 	 1422 	 	 1571 	 	 168 
  98 	 	 433 	 	 202 	 	 4 	 	 3083 	 	 3221 	 	 125 
  99 	 	 237 	 	 306 	 	 31 	 	 1567 	 	 1750 	 	 149 
  100 	 	 767 	 	 679 	 	 36 	 	 498 	 	 651 	 	 179 
 